50
1 53 251
2 30 450
3 806 125
4 634 777
5 765 129
6 504 568
7 883 958
8 798 95
9 322 575
10 847 773
11 492 48
12 462 101
13 55 28
14 286 150
15 237 242
16 888 783
17 475 108
18 196 284
19 613 26
20 152 536
21 436 237
22 242 338
23 174 570
24 259 433
25 589 744
26 112 459
27 763 769
28 507 740
29 309 940
30 318 925
31 123 940
32 170 157
33 598 341
34 846 912
35 310 518
36 792 262
37 608 520
38 932 441
39 966 523
40 982 141
41 113 186
42 162 656
43 697 915
44 688 65
45 627 751
46 115 683
47 805 710
48 450 785
49 317 391
50 963 565
